\ENCODING=ISO-8859-1
\Problem name: lp1.lp

Minimize
 obj: - 2 x10 + [ 2 x8 ^2 + 2 x9 ^2 + 2 x10 ^2 ] / 2
Subject To
 c1: x3 + x4 + x5 - x8  = 0
 c2: x2 + x4 + x6 - x9  = 0
 c3: x7 - x10  = 0
 c4: x1 + x2 + x3 + x4  = 1
Bounds
      x8 Free
      x9 Free
      x10 Free
End
